NAME          
ROWS
 N  OBJ
 L  c1
 L  c2
 L  c3
 L  c4
 L  c5
COLUMNS
    MARKER    'MARKER'                 'INTORG'
    x[1]      c1        169
    x[1]      c2        481
    x[1]      c3        641
    x[1]      c4        368
    x[1]      c5        404
    x[1]      OBJ       -983
    x[2]      c1        771
    x[2]      c2        156
    x[2]      c3        32
    x[2]      c4        972
    x[2]      c5        121
    x[2]      OBJ       -288
    x[3]      c1        499
    x[3]      c2        854
    x[3]      c3        840
    x[3]      c4        858
    x[3]      c5        687
    x[3]      OBJ       -576
    x[4]      c1        583
    x[4]      c2        519
    x[4]      c3        835
    x[4]      c4        723
    x[4]      c5        166
    x[4]      OBJ       -661
    x[5]      c1        63
    x[5]      c2        136
    x[5]      c3        645
    x[5]      c4        8
    x[5]      c5        131
    x[5]      OBJ       -619
    x[6]      c1        580
    x[6]      c2        991
    x[6]      c3        993
    x[6]      c4        17
    x[6]      c5        775
    x[6]      OBJ       -451
    x[7]      c1        9
    x[7]      c2        102
    x[7]      c3        66
    x[7]      c4        141
    x[7]      c5        34
    x[7]      OBJ       -659
    x[8]      c1        286
    x[8]      c2        16
    x[8]      c3        245
    x[8]      c4        759
    x[8]      c5        925
    x[8]      OBJ       -821
    x[9]      c1        778
    x[9]      c2        424
    x[9]      c3        424
    x[9]      c4        169
    x[9]      c5        686
    x[9]      OBJ       -709
    x[10]     c1        60
    x[10]     c2        384
    x[10]     c3        267
    x[10]     c4        665
    x[10]     c5        800
    x[10]     OBJ       -610
    x[11]     c1        289
    x[11]     c2        549
    x[11]     c3        500
    x[11]     c4        600
    x[11]     c5        195
    x[11]     OBJ       -464
    x[12]     c1        542
    x[12]     c2        669
    x[12]     c3        565
    x[12]     c4        634
    x[12]     c5        219
    x[12]     OBJ       -901
    x[13]     c1        396
    x[13]     c2        454
    x[13]     c3        683
    x[13]     c4        326
    x[13]     c5        205
    x[13]     OBJ       -830
    x[14]     c1        675
    x[14]     c2        657
    x[14]     c3        759
    x[14]     c4        824
    x[14]     c5        547
    x[14]     OBJ       -265
    x[15]     c1        340
    x[15]     c2        608
    x[15]     c3        87
    x[15]     c4        247
    x[15]     c5        921
    x[15]     OBJ       -942
    x[16]     c1        543
    x[16]     c2        569
    x[16]     c3        576
    x[16]     c4        627
    x[16]     c5        35
    x[16]     OBJ       -489
    x[17]     c1        5
    x[17]     c2        80
    x[17]     c3        801
    x[17]     c4        397
    x[17]     c5        19
    x[17]     OBJ       -477
    x[18]     c1        214
    x[18]     c2        286
    x[18]     c3        412
    x[18]     c4        357
    x[18]     c5        131
    x[18]     OBJ       -190
    x[19]     c1        174
    x[19]     c2        196
    x[19]     c3        927
    x[19]     c4        717
    x[19]     c5        774
    x[19]     OBJ       -445
    x[20]     c1        89
    x[20]     c2        206
    x[20]     c3        451
    x[20]     c4        774
    x[20]     c5        877
    x[20]     OBJ       -888
    x[21]     c1        206
    x[21]     c2        634
    x[21]     c3        92
    x[21]     c4        40
    x[21]     c5        920
    x[21]     OBJ       -576
    x[22]     c1        526
    x[22]     c2        278
    x[22]     c3        529
    x[22]     c4        867
    x[22]     c5        592
    x[22]     OBJ       -625
    x[23]     c1        866
    x[23]     c2        772
    x[23]     c3        987
    x[23]     c4        857
    x[23]     c5        92
    x[23]     OBJ       -4
    x[24]     c1        244
    x[24]     c2        608
    x[24]     c3        345
    x[24]     c4        156
    x[24]     c5        349
    x[24]     OBJ       -697
    x[25]     c1        733
    x[25]     c2        661
    x[25]     c3        324
    x[25]     c4        444
    x[25]     c5        581
    x[25]     OBJ       -748
RHS
    rhs       c1        4820
    rhs       c2        5645
    rhs       c3        6513
    rhs       c4        6274
    rhs       c5        5593
RANGES
BOUNDS
 BV bounds    x[1]
 BV bounds    x[2]
 BV bounds    x[3]
 BV bounds    x[4]
 BV bounds    x[5]
 BV bounds    x[6]
 BV bounds    x[7]
 BV bounds    x[8]
 BV bounds    x[9]
 BV bounds    x[10]
 BV bounds    x[11]
 BV bounds    x[12]
 BV bounds    x[13]
 BV bounds    x[14]
 BV bounds    x[15]
 BV bounds    x[16]
 BV bounds    x[17]
 BV bounds    x[18]
 BV bounds    x[19]
 BV bounds    x[20]
 BV bounds    x[21]
 BV bounds    x[22]
 BV bounds    x[23]
 BV bounds    x[24]
 BV bounds    x[25]
ENDATA
